22	3

10	10	10	

0	0	0	0	3	2	3	4	
2	3	5	2	2	5	7	
5	5	4	3	3	6	7	8	
2	5	2	2	2	6	7	
5	4	1	4	2	10	12	
3	5	5	4	2	9	11	
3	3	5	2	2	10	11	
2	2	4	4	2	10	11	
1	3	2	2	2	14	15	
6	3	2	4	1	13	
2	3	3	2	1	14	
8	4	1	4	2	14	16	
1	1	4	4	2	17	18	
8	2	2	2	1	17	
7	5	5	4	1	17	
1	1	5	4	1	19	
3	4	5	4	1	21	
1	3	2	3	1	21	
2	5	3	3	1	20	
7	2	4	6	1	22	
1	1	6	2	1	22	
0	0	0	0	0	
